c input/binomial/cnf_noALO/10x10_121.cnf
s SATISFIABLE
c process-time: 0.00 seconds
-----
c input/binomial/cnf_noALO/10x10_122.cnf
s SATISFIABLE
c process-time: 0.00 seconds
-----
c input/binomial/cnf_noALO/10x10_123.cnf
s SATISFIABLE
c process-time: 0.01 seconds
-----
c input/binomial/cnf_noALO/10x10_124.cnf
s SATISFIABLE
c process-time: 0.00 seconds
-----
c input/binomial/cnf_noALO/10x10_130.cnf
s SATISFIABLE
c process-time: 0.00 seconds
-----
c input/binomial/cnf_noALO/10x10_131.cnf
s SATISFIABLE
c process-time: 0.00 seconds
-----
c input/binomial/cnf_noALO/10x10_132.cnf
s SATISFIABLE
c process-time: 0.00 seconds
-----
c input/binomial/cnf_noALO/10x10_133.cnf
s SATISFIABLE
c process-time: 0.01 seconds
-----
c input/binomial/cnf_noALO/10x10_134.cnf
s SATISFIABLE
c process-time: 0.01 seconds
-----
c input/binomial/cnf_noALO/10x10_137.cnf
s SATISFIABLE
c process-time: 0.00 seconds
-----
c input/binomial/cnf_noALO/10x10_138.cnf
s SATISFIABLE
c process-time: 0.01 seconds
-----
c input/binomial/cnf_noALO/10x10_142.cnf
s SATISFIABLE
c process-time: 0.01 seconds
-----
c input/binomial/cnf_noALO/10x10_143.cnf
s SATISFIABLE
c process-time: 0.00 seconds
-----
c input/binomial/cnf_noALO/10x10_144.cnf
s SATISFIABLE
c process-time: 0.00 seconds
-----
c input/binomial/cnf_noALO/10x10_145.cnf
s SATISFIABLE
c process-time: 0.00 seconds
-----
c input/binomial/cnf_noALO/10x15_388.cnf
s SATISFIABLE
c process-time: 0.14 seconds
-----
c input/binomial/cnf_noALO/10x15_389.cnf
s SATISFIABLE
c process-time: 0.04 seconds
-----
c input/binomial/cnf_noALO/10x15_396.cnf
s SATISFIABLE
c process-time: 0.02 seconds
-----
c input/binomial/cnf_noALO/10x15_397.cnf
s SATISFIABLE
c process-time: 0.02 seconds
-----
c input/binomial/cnf_noALO/10x15_398.cnf
s SATISFIABLE
c process-time: 1s 0.80 seconds
-----
c input/binomial/cnf_noALO/10x15_399.cnf
s SATISFIABLE
c process-time: 0.03 seconds
-----
c input/binomial/cnf_noALO/10x18_186.cnf
s SATISFIABLE
c process-time: 0.10 seconds
-----
c input/binomial/cnf_noALO/10x18_187.cnf
s SATISFIABLE
c process-time: 2s 1.87 seconds
-----
c input/binomial/cnf_noALO/10x18_198.cnf
s SATISFIABLE
c process-time: 0.01 seconds
-----
c input/binomial/cnf_noALO/10x18_199.cnf
s SATISFIABLE
c process-time: 0.01 seconds
-----
c input/binomial/cnf_noALO/10x18_208.cnf
s SATISFIABLE
c process-time: 0.01 seconds
-----
c input/binomial/cnf_noALO/10x18_209.cnf
s SATISFIABLE
c process-time: 0.04 seconds
-----
c input/binomial/cnf_noALO/10x18_414.cnf
s SATISFIABLE
c process-time: 0.04 seconds
-----
c input/binomial/cnf_noALO/10x18_415.cnf
s SATISFIABLE
c process-time: 0.03 seconds
-----
c input/binomial/cnf_noALO/10x18_417.cnf
s SATISFIABLE
c process-time: 0.08 seconds
-----
c input/binomial/cnf_noALO/11x11_120.cnf
s SATISFIABLE
c process-time: 0.00 seconds
-----
c input/binomial/cnf_noALO/11x11_121.cnf
s SATISFIABLE
c process-time: 0.00 seconds
-----
c input/binomial/cnf_noALO/11x11_123.cnf
s SATISFIABLE
c process-time: 0.01 seconds
-----
c input/binomial/cnf_noALO/11x11_130.cnf
s SATISFIABLE
c process-time: 0.00 seconds
-----
c input/binomial/cnf_noALO/11x11_131.cnf
s SATISFIABLE
c process-time: 0.00 seconds
-----
c input/binomial/cnf_noALO/11x11_132.cnf
s SATISFIABLE
c process-time: 0.04 seconds
-----
c input/binomial/cnf_noALO/11x11_133.cnf
s SATISFIABLE
c process-time: 0.00 seconds
-----
c input/binomial/cnf_noALO/11x11_137.cnf
s SATISFIABLE
c process-time: 0.00 seconds
-----
c input/binomial/cnf_noALO/11x11_139.cnf
s SATISFIABLE
c process-time: 0.01 seconds
-----
c input/binomial/cnf_noALO/11x11_142.cnf
s SATISFIABLE
c process-time: 0.00 seconds
-----
c input/binomial/cnf_noALO/11x11_143.cnf
s SATISFIABLE
c process-time: 0.01 seconds
-----
c input/binomial/cnf_noALO/11x11_144.cnf
s SATISFIABLE
c process-time: 0.01 seconds
-----
c input/binomial/cnf_noALO/11x11_145.cnf
s SATISFIABLE
c process-time: 0.00 seconds
-----
c input/binomial/cnf_noALO/12x12_120.cnf
s SATISFIABLE
c process-time: 0.00 seconds
-----
c input/binomial/cnf_noALO/12x12_122.cnf
s SATISFIABLE
c process-time: 0.00 seconds
-----
c input/binomial/cnf_noALO/12x12_124.cnf
s SATISFIABLE
c process-time: 0.01 seconds
-----
c input/binomial/cnf_noALO/12x12_131.cnf
s SATISFIABLE
c process-time: 0.01 seconds
-----
c input/binomial/cnf_noALO/12x12_132.cnf
s SATISFIABLE
c process-time: 0.01 seconds
-----
c input/binomial/cnf_noALO/12x12_134.cnf
s SATISFIABLE
c process-time: 0.01 seconds
-----
c input/binomial/cnf_noALO/12x12_136.cnf
s SATISFIABLE
c process-time: 0.03 seconds
-----
c input/binomial/cnf_noALO/12x12_137.cnf
s SATISFIABLE
c process-time: 0.00 seconds
-----
c input/binomial/cnf_noALO/12x12_138.cnf
s SATISFIABLE
c process-time: 0.00 seconds
-----
c input/binomial/cnf_noALO/12x12_139.cnf
s SATISFIABLE
c process-time: 0.01 seconds
-----
c input/binomial/cnf_noALO/12x12_140.cnf
s SATISFIABLE
c process-time: 0.01 seconds
-----
c input/binomial/cnf_noALO/12x12_141.cnf
s SATISFIABLE
c process-time: 0.00 seconds
-----
c input/binomial/cnf_noALO/12x12_142.cnf
s SATISFIABLE
c process-time: 0.01 seconds
-----
c input/binomial/cnf_noALO/12x12_143.cnf
s SATISFIABLE
c process-time: 0.01 seconds
-----
c input/binomial/cnf_noALO/12x12_144.cnf
s SATISFIABLE
c process-time: 0.00 seconds
-----
c input/binomial/cnf_noALO/12x15_39.cnf
s SATISFIABLE
c process-time: 0.00 seconds
-----
c input/binomial/cnf_noALO/12x15_43.cnf
s SATISFIABLE
c process-time: 0.06 seconds
-----
c input/binomial/cnf_noALO/12x15_45.cnf
s SATISFIABLE
c process-time: 0.45 seconds
-----
c input/binomial/cnf_noALO/12x15_46.cnf
s SATISFIABLE
c process-time: 0.02 seconds
-----
c input/binomial/cnf_noALO/12x23_210.cnf
s SATISFIABLE
c process-time: 0.03 seconds
-----
c input/binomial/cnf_noALO/13x13_120.cnf
s SATISFIABLE
c process-time: 0.01 seconds
-----
c input/binomial/cnf_noALO/13x13_121.cnf
s SATISFIABLE
c process-time: 0.01 seconds
-----
c input/binomial/cnf_noALO/13x13_122.cnf
s SATISFIABLE
c process-time: 1s 0.60 seconds
-----
c input/binomial/cnf_noALO/13x13_123.cnf
s SATISFIABLE
c process-time: 0.01 seconds
-----
c input/binomial/cnf_noALO/13x13_124.cnf
s SATISFIABLE
c process-time: 0.07 seconds
-----
c input/binomial/cnf_noALO/13x13_130.cnf
s SATISFIABLE
c process-time: 0.04 seconds
-----
c input/binomial/cnf_noALO/13x13_131.cnf
s SATISFIABLE
c process-time: 0.01 seconds
-----
c input/binomial/cnf_noALO/13x13_133.cnf
s SATISFIABLE
c process-time: 0.29 seconds
-----
c input/binomial/cnf_noALO/13x13_136.cnf
s SATISFIABLE
c process-time: 0.37 seconds
-----
c input/binomial/cnf_noALO/13x13_137.cnf
s SATISFIABLE
c process-time: 0.08 seconds
-----
c input/binomial/cnf_noALO/13x13_138.cnf
s SATISFIABLE
c process-time: 0.01 seconds
-----
c input/binomial/cnf_noALO/13x13_139.cnf
s SATISFIABLE
c process-time: 0.05 seconds
-----
c input/binomial/cnf_noALO/13x13_140.cnf
s SATISFIABLE
c process-time: 0.00 seconds
-----
c input/binomial/cnf_noALO/13x13_141.cnf
s SATISFIABLE
c process-time: 0.00 seconds
-----
c input/binomial/cnf_noALO/13x13_142.cnf
s SATISFIABLE
c process-time: 0.12 seconds
-----
c input/binomial/cnf_noALO/13x13_143.cnf
s SATISFIABLE
c process-time: 0.11 seconds
-----
c input/binomial/cnf_noALO/14x14_120.cnf
s SATISFIABLE
c process-time: 0.14 seconds
-----
c input/binomial/cnf_noALO/14x14_121.cnf
s SATISFIABLE
c process-time: 0.01 seconds
-----
c input/binomial/cnf_noALO/14x14_122.cnf
s SATISFIABLE
c process-time: 0.07 seconds
-----
c input/binomial/cnf_noALO/14x14_123.cnf
s SATISFIABLE
c process-time: 0.12 seconds
-----
c input/binomial/cnf_noALO/14x14_130.cnf
s SATISFIABLE
c process-time: 0.01 seconds
-----
c input/binomial/cnf_noALO/14x14_132.cnf
s SATISFIABLE
c process-time: 0.01 seconds
-----
c input/binomial/cnf_noALO/14x14_134.cnf
s SATISFIABLE
c process-time: 0.13 seconds
-----
c input/binomial/cnf_noALO/14x14_135.cnf
s SATISFIABLE
c process-time: 0.03 seconds
-----
c input/binomial/cnf_noALO/14x14_136.cnf
s SATISFIABLE
c process-time: 0.18 seconds
-----
c input/binomial/cnf_noALO/14x14_137.cnf
s SATISFIABLE
c process-time: 0.01 seconds
-----
c input/binomial/cnf_noALO/14x14_138.cnf
s SATISFIABLE
c process-time: 0.07 seconds
-----
c input/binomial/cnf_noALO/14x14_140.cnf
s SATISFIABLE
c process-time: 0.02 seconds
-----
c input/binomial/cnf_noALO/14x14_141.cnf
s SATISFIABLE
c process-time: 0.46 seconds
-----
c input/binomial/cnf_noALO/14x14_143.cnf
s SATISFIABLE
c process-time: 0.08 seconds
-----
c input/binomial/cnf_noALO/14x14_144.cnf
s SATISFIABLE
c process-time: 0.03 seconds
-----
c input/binomial/cnf_noALO/14x24_105.cnf
s SATISFIABLE
c process-time: 11s 11.34 seconds
-----
c input/binomial/cnf_noALO/14x24_117.cnf
s SATISFIABLE
c process-time: 1s 1.34 seconds
-----
c input/binomial/cnf_noALO/14x24_129.cnf
s SATISFIABLE
c process-time: 15s 15.26 seconds
-----
c input/binomial/cnf_noALO/14x24_139.cnf
s SATISFIABLE
c process-time: 9s 8.98 seconds
-----
c input/binomial/cnf_noALO/14x24_147.cnf
s SATISFIABLE
c process-time: 4s 3.79 seconds
-----
c input/binomial/cnf_noALO/14x24_148.cnf
s SATISFIABLE
c process-time: 24s 24.49 seconds
-----
c input/binomial/cnf_noALO/14x24_158.cnf
s SATISFIABLE
c process-time: 2s 1.85 seconds
-----
c input/binomial/cnf_noALO/14x24_179.cnf
s SATISFIABLE
c process-time: 20s 20.47 seconds
-----
c input/binomial/cnf_noALO/14x24_190.cnf
s SATISFIABLE
c process-time: 2s 1.87 seconds
-----
c input/binomial/cnf_noALO/14x24_199.cnf
s SATISFIABLE
c process-time: 3s 2.67 seconds
-----
c input/binomial/cnf_noALO/14x24_208.cnf
s SATISFIABLE
c process-time: 2s 1.91 seconds
-----
c input/binomial/cnf_noALO/14x24_209.cnf
s SATISFIABLE
c process-time: 5s 5.10 seconds
-----
c input/binomial/cnf_noALO/14x24_218.cnf
s SATISFIABLE
c process-time: 12s 11.67 seconds
-----
c input/binomial/cnf_noALO/14x24_219.cnf
s SATISFIABLE
c process-time: 23s 22.96 seconds
-----
c input/binomial/cnf_noALO/14x24_418.cnf
s SATISFIABLE
c process-time: 10s 10.37 seconds
-----
c input/binomial/cnf_noALO/14x24_419.cnf
s SATISFIABLE
c process-time: 2s 1.97 seconds
-----
c input/binomial/cnf_noALO/14x24_420.cnf
s SATISFIABLE
c process-time: 4s 3.80 seconds
-----
c input/binomial/cnf_noALO/15x15_120.cnf
s SATISFIABLE
c process-time: 0.27 seconds
-----
c input/binomial/cnf_noALO/15x15_121.cnf
s SATISFIABLE
c process-time: 0.07 seconds
-----
c input/binomial/cnf_noALO/15x15_124.cnf
s SATISFIABLE
c process-time: 2s 2.02 seconds
-----
c input/binomial/cnf_noALO/15x15_130.cnf
s SATISFIABLE
c process-time: 0.03 seconds
-----
c input/binomial/cnf_noALO/15x15_131.cnf
s SATISFIABLE
c process-time: 0.06 seconds
-----
c input/binomial/cnf_noALO/15x15_133.cnf
s SATISFIABLE
c process-time: 1s 0.60 seconds
-----
c input/binomial/cnf_noALO/15x15_134.cnf
s SATISFIABLE
c process-time: 0.31 seconds
-----
c input/binomial/cnf_noALO/15x15_136.cnf
s SATISFIABLE
c process-time: 0.13 seconds
-----
c input/binomial/cnf_noALO/15x15_137.cnf
s SATISFIABLE
c process-time: 1s 0.57 seconds
-----
c input/binomial/cnf_noALO/15x15_138.cnf
s SATISFIABLE
c process-time: 0.15 seconds
-----
c input/binomial/cnf_noALO/15x15_140.cnf
s SATISFIABLE
c process-time: 0.09 seconds
-----
c input/binomial/cnf_noALO/15x15_141.cnf
s SATISFIABLE
c process-time: 1s 0.57 seconds
-----
c input/binomial/cnf_noALO/15x15_143.cnf
s SATISFIABLE
c process-time: 0.07 seconds
-----
c input/binomial/cnf_noALO/15x20_308.cnf
s SATISFIABLE
c process-time: 14s 14.25 seconds
-----
c input/binomial/cnf_noALO/15x20_317.cnf
s SATISFIABLE
c process-time: 1s 0.75 seconds
-----
c input/binomial/cnf_noALO/15x20_319.cnf
s SATISFIABLE
c process-time: 5m 29s 329.37 seconds
-----
c input/binomial/cnf_noALO/17x17_100.cnf
s SATISFIABLE
c process-time: 2s 2.12 seconds
-----
c input/binomial/cnf_noALO/17x17_104.cnf
s SATISFIABLE
c process-time: 1s 1.49 seconds
-----
c input/binomial/cnf_noALO/17x17_109.cnf
s SATISFIABLE
c process-time: 1s 0.89 seconds
-----
c input/binomial/cnf_noALO/17x17_112.cnf
s SATISFIABLE
c process-time: 0.21 seconds
-----
c input/binomial/cnf_noALO/17x17_120.cnf
s SATISFIABLE
c process-time: 2s 1.64 seconds
-----
c input/binomial/cnf_noALO/17x17_128.cnf
s SATISFIABLE
c process-time: 3s 2.86 seconds
-----
c input/binomial/cnf_noALO/17x17_136.cnf
s SATISFIABLE
c process-time: 0.11 seconds
-----
c input/binomial/cnf_noALO/17x17_167.cnf
s SATISFIABLE
c process-time: 0.05 seconds
-----
c input/binomial/cnf_noALO/17x17_175.cnf
s SATISFIABLE
c process-time: 2s 1.53 seconds
-----
c input/binomial/cnf_noALO/17x17_176.cnf
s SATISFIABLE
c process-time: 3m 23s 203.11 seconds
-----
c input/binomial/cnf_noALO/17x17_178.cnf
s SATISFIABLE
c process-time: 0.05 seconds
-----
c input/binomial/cnf_noALO/17x17_187.cnf
s SATISFIABLE
c process-time: 1s 1.39 seconds
-----
c input/binomial/cnf_noALO/17x17_188.cnf
s SATISFIABLE
c process-time: 2s 1.71 seconds
-----
c input/binomial/cnf_noALO/17x17_198.cnf
s SATISFIABLE
c process-time: 0.39 seconds
-----
c input/binomial/cnf_noALO/17x17_230.cnf
s SATISFIABLE
c process-time: 0.43 seconds
-----
c input/binomial/cnf_noALO/17x17_250.cnf
s SATISFIABLE
c process-time: 0.06 seconds
-----
c input/binomial/cnf_noALO/17x17_260.cnf
s SATISFIABLE
c process-time: 0.10 seconds
-----
c input/binomial/cnf_noALO/17x17_270.cnf
s SATISFIABLE
c process-time: 1s 0.53 seconds
-----
c input/binomial/cnf_noALO/17x17_429.cnf
s SATISFIABLE
c process-time: 0.03 seconds
-----
c input/binomial/cnf_noALO/17x17_439.cnf
s SATISFIABLE
c process-time: 46s 45.89 seconds
-----
c input/binomial/cnf_noALO/17x17_449.cnf
s SATISFIABLE
c process-time: 6s 5.71 seconds
-----
c input/binomial/cnf_noALO/20x20_430.cnf
s SATISFIABLE
c process-time: 11s 11.43 seconds
-----
c input/binomial/cnf_noALO/20x20_440.cnf
c process-time: 30m 1799.85 seconds
UNKNOWN
-----
c input/binomial/cnf_noALO/20x20_450.cnf
s SATISFIABLE
c process-time: 11m 27s 686.71 seconds
-----
c input/binomial/cnf_noALO/20x36_106.cnf
s SATISFIABLE
c process-time: 1m 55s 115.40 seconds
-----
c input/binomial/cnf_noALO/20x36_114.cnf
s SATISFIABLE
c process-time: 8m 37s 516.87 seconds
-----
c input/binomial/cnf_noALO/20x36_118.cnf
c process-time: 30m 1799.86 seconds
UNKNOWN
-----
c input/binomial/cnf_noALO/20x36_130.cnf
c process-time: 30m 1799.79 seconds
UNKNOWN
-----
c input/binomial/cnf_noALO/20x36_140.cnf
c process-time: 30m 1799.80 seconds
UNKNOWN
-----
c input/binomial/cnf_noALO/20x36_149.cnf
c process-time: 30m 1799.89 seconds
UNKNOWN
-----
c input/binomial/cnf_noALO/20x36_210.cnf
c process-time: 30m 1799.79 seconds
UNKNOWN
-----
c input/binomial/cnf_noALO/25x25_60.cnf
s SATISFIABLE
c process-time: 2m 14s 133.61 seconds
-----
c input/binomial/cnf_noALO/25x25_72.cnf
s SATISFIABLE
c process-time: 15m 53s 953.35 seconds
-----
c input/binomial/cnf_noALO/35x48_190.cnf
c process-time: 29m 59s 1798.77 seconds
UNKNOWN
-----
c input/binomial/cnf_noALO/6x6_120.cnf
s SATISFIABLE
c process-time: 0.00 seconds
-----
c input/binomial/cnf_noALO/6x6_121.cnf
s SATISFIABLE
c process-time: 0.00 seconds
-----
c input/binomial/cnf_noALO/6x6_122.cnf
s SATISFIABLE
c process-time: 0.00 seconds
-----
c input/binomial/cnf_noALO/6x6_123.cnf
s SATISFIABLE
c process-time: 0.00 seconds
-----
c input/binomial/cnf_noALO/6x6_131.cnf
s SATISFIABLE
c process-time: 0.00 seconds
-----
c input/binomial/cnf_noALO/6x6_133.cnf
s SATISFIABLE
c process-time: 0.00 seconds
-----
c input/binomial/cnf_noALO/6x6_135.cnf
s SATISFIABLE
c process-time: 0.00 seconds
-----
c input/binomial/cnf_noALO/6x6_136.cnf
s SATISFIABLE
c process-time: 0.00 seconds
-----
c input/binomial/cnf_noALO/6x6_138.cnf
s SATISFIABLE
c process-time: 0.00 seconds
-----
c input/binomial/cnf_noALO/6x6_139.cnf
s SATISFIABLE
c process-time: 0.00 seconds
-----
c input/binomial/cnf_noALO/6x6_140.cnf
s SATISFIABLE
c process-time: 0.00 seconds
-----
c input/binomial/cnf_noALO/6x6_142.cnf
s SATISFIABLE
c process-time: 0.00 seconds
-----
c input/binomial/cnf_noALO/6x6_145.cnf
s SATISFIABLE
c process-time: 0.00 seconds
-----
c input/binomial/cnf_noALO/7x7_130.cnf
s SATISFIABLE
c process-time: 0.00 seconds
-----
c input/binomial/cnf_noALO/7x7_131.cnf
s SATISFIABLE
c process-time: 0.00 seconds
-----
c input/binomial/cnf_noALO/7x7_132.cnf
s SATISFIABLE
c process-time: 0.00 seconds
-----
c input/binomial/cnf_noALO/7x7_134.cnf
s SATISFIABLE
c process-time: 0.00 seconds
-----
c input/binomial/cnf_noALO/7x7_137.cnf
s SATISFIABLE
c process-time: 0.00 seconds
-----
c input/binomial/cnf_noALO/7x7_141.cnf
s SATISFIABLE
c process-time: 0.00 seconds
-----
c input/binomial/cnf_noALO/7x7_142.cnf
s SATISFIABLE
c process-time: 0.00 seconds
-----
c input/binomial/cnf_noALO/7x7_143.cnf
s SATISFIABLE
c process-time: 0.00 seconds
-----
c input/binomial/cnf_noALO/7x7_144.cnf
s SATISFIABLE
c process-time: 0.00 seconds
-----
c input/binomial/cnf_noALO/7x7_145.cnf
s SATISFIABLE
c process-time: 0.00 seconds
-----
c input/binomial/cnf_noALO/8x8_120.cnf
s SATISFIABLE
c process-time: 0.00 seconds
-----
c input/binomial/cnf_noALO/8x8_121.cnf
s SATISFIABLE
c process-time: 0.00 seconds
-----
c input/binomial/cnf_noALO/8x8_122.cnf
s SATISFIABLE
c process-time: 0.00 seconds
-----
c input/binomial/cnf_noALO/8x8_123.cnf
s SATISFIABLE
c process-time: 0.00 seconds
-----
c input/binomial/cnf_noALO/8x8_124.cnf
s SATISFIABLE
c process-time: 0.00 seconds
-----
c input/binomial/cnf_noALO/8x8_130.cnf
s SATISFIABLE
c process-time: 0.00 seconds
-----
c input/binomial/cnf_noALO/8x8_133.cnf
s SATISFIABLE
c process-time: 0.00 seconds
-----
c input/binomial/cnf_noALO/8x8_135.cnf
s SATISFIABLE
c process-time: 0.00 seconds
-----
c input/binomial/cnf_noALO/8x8_136.cnf
s SATISFIABLE
c process-time: 0.00 seconds
-----
c input/binomial/cnf_noALO/8x8_137.cnf
s SATISFIABLE
c process-time: 0.00 seconds
-----
c input/binomial/cnf_noALO/8x8_138.cnf
s SATISFIABLE
c process-time: 0.00 seconds
-----
c input/binomial/cnf_noALO/8x8_139.cnf
s SATISFIABLE
c process-time: 0.00 seconds
-----
c input/binomial/cnf_noALO/8x8_140.cnf
s SATISFIABLE
c process-time: 0.00 seconds
-----
c input/binomial/cnf_noALO/8x8_142.cnf
s SATISFIABLE
c process-time: 0.00 seconds
-----
c input/binomial/cnf_noALO/8x8_144.cnf
s SATISFIABLE
c process-time: 0.00 seconds
-----
c input/binomial/cnf_noALO/9x9_120.cnf
s SATISFIABLE
c process-time: 0.00 seconds
-----
c input/binomial/cnf_noALO/9x9_122.cnf
s SATISFIABLE
c process-time: 0.00 seconds
-----
c input/binomial/cnf_noALO/9x9_130.cnf
s SATISFIABLE
c process-time: 0.00 seconds
-----
c input/binomial/cnf_noALO/9x9_131.cnf
s SATISFIABLE
c process-time: 0.00 seconds
-----
c input/binomial/cnf_noALO/9x9_132.cnf
s SATISFIABLE
c process-time: 0.00 seconds
-----
c input/binomial/cnf_noALO/9x9_134.cnf
s SATISFIABLE
c process-time: 0.00 seconds
-----
c input/binomial/cnf_noALO/9x9_136.cnf
s SATISFIABLE
c process-time: 0.00 seconds
-----
c input/binomial/cnf_noALO/9x9_141.cnf
s SATISFIABLE
c process-time: 0.00 seconds
-----
c input/binomial/cnf_noALO/9x9_143.cnf
s SATISFIABLE
c process-time: 0.00 seconds
-----
c input/binomial/cnf_noALO/9x9_144.cnf
s SATISFIABLE
c process-time: 0.00 seconds
-----
c input/binomial/cnf_noALO/9x9_145.cnf
s SATISFIABLE
c process-time: 0.00 seconds
-----
UNKNOWN
-----

